\ENCODING=ISO-8859-1
\Problem name: IloCplex

Minimize
 obj: x1 + x2 + x3 + x4 + x5 + x6 + x7 + x8 + x9 + x10 + x11 + x12 + x13 + x14
      + x15 + x16 + x17 + x18 + x19 + x20 + x21 + x22 + x23 + x24 + x25 + x26
      + x27 + x28 + x29 + x30 + x31 + x32 + x33 + x34 + x35 + x36 + x37 + x38
      + x39 + x40 + x41 + x42 + x43 + x44 + x45 + x46 + x47 + x48 + x49 + x50
      + x51 + x52 + x53 + x54 + x55 + x56 + x57 + x58 + x59 + x60 + x61 + x62
      + x63 + x64 + x65 + x66 + x67 + x68 + x69 + x70 + x71 + x72 + x73 + x74
      + x75 + x76 + x77 + x78 + x79 + x80 + x81 + x82 + x83 + x84 + x85 + x86
      + x87 + x88 + x89 + x90 + x91 + x92 + x93 + x94 + x95 + x96 + x97 + x98
      + x99 + x100 + x101 + x102 + x103 + x104 + x105 + x106 + x107 + x108
      + x109 + x110 + x111 + x112 + x113 + x114 + x115 + x116 + x117 + x118
      + x119 + x120 + x121 + x122 + x123 + x124 + x125 + x126 + x127 + x128
      + x129 + x130 + x131 + x132 + x133 + x134 + x135 + x136 + x137 + x138
      + x139 + x140 + x141 + x142 + x143 + x144 + x145 + x146 + x147 + x148
      + x149 + x150 + x151 + x152 + x153 + x154 + x155 + x156 + x157 + x158
      + x159 + x160 + x161 + x162 + x163 + x164 + x165 + x166 + x167 + x168
      + x169 + x170 + x171 + x172 + x173 + x174 + x175 + x176 + x177 + x178
Subject To
 c1:  x1  = 1
 c2:  x2  = 1
 c3:  x3  = 1
 c4:  x4  = 1
 c5:  x5  = 1
 c6:  x6  = 1
 c7:  x7 + x173  = 1
 c8:  x8 + x157 + x171  = 1
 c9:  x9 + x150 + x155  = 1
 c10: x10 + x144 + x148 + x163  = 1
 c11: x11 + x137 + x143 + x154 + x169 + x174  = 1
 c12: x12 + x132 + x135 + x139 + x161  = 1
 c13: x13 + x127 + x129 + x138  = 1
 c14: x14 + x124 + x126 + x151 + x156  = 1
 c15: x15 + x122 + x123 + x145  = 1
 c16: x16 + x116 + x118 + x120 + x136 + x160  = 1
 c17: x17 + x113 + x121 + x134  = 1
 c18: x18 + x109 + x110 + x114 + x149 + x167 + x168  = 1
 c19: x19 + x105 + x106 + x108 + x142 + x158  = 1
 c20: x20 + x102 + x103 + x112 + x146 + x166 + x178  = 1
 c21: x21 + x98 + x101 + x162 + x177  = 1
 c22: x22 + x99 + x159  = 1
 c23: x23 + x99 + x100 + x152  = 1
 c24: x24 + x96 + x98 + x164 + x165  = 1
 c25: x25 + x91 + x96 + x100 + x101 + x140 + x166  = 1
 c26: x26 + x91 + x95 + x104 + x146 + x170  = 1
 c27: x27 + x86 + x87 + x89 + x97 + x112 + x115 + x133 + x141 + x153  = 1
 c28: x28 + x84 + x86 + x111 + x125 + x128 + x130 + x141 + x147 + x176  = 1
 c29: x29 + x67 + x76 + x82 + x88 + x104 + x107 + x111 + x117 + x119 + x121
       = 1
 c30: x30 + x84 + x85 + x87 + x107 + x108 + x136  = 1
 c31: x31 + x82 + x83 + x85 + x94 + x103 + x115 + x125 + x145 + x152 + x153
       = 1
 c32: x32 + x79 + x81 + x82 + x90 + x93 + x113 + x123 + x153 + x167 + x168
      + x170 + x175 + x176  = 1
 c33: x33 + x73 + x78 + x79 + x80 + x92 + x95 + x133 + x140 + x147 + x165
      + x175 + x176  = 1
 c34: x34 + x70 + x75 + x76 + x78 + x90 + x93 + x94 + x95 + x122 + x131 + x149
      + x156  = 1
 c35: x35 + x63 + x70 + x74 + x77 + x80 + x81 + x88 + x92 + x128 + x130 + x131
      + x133 + x142 + x160 + x170 + x172  = 1
 c36: x36 + x68 + x69 + x70 + x71 + x84 + x97 + x106 + x119 + x140 + x164
      + x172 + x177  = 1
 c37: x37 + x64 + x66 + x67 + x68 + x74 + x83 + x89 + x107 + x120 + x129 + x162
      + x164 + x165  = 1
 c38: x38 + x60 + x64 + x65 + x66 + x71 + x72 + x77 + x78 + x92 + x94 + x97
      + x102 + x111 + x124 + x161  = 1
 c39: x39 + x60 + x63 + x69 + x73 + x74 + x90 + x117 + x118 + x127 + x131
      + x135 + x178  = 1
 c40: x40 + x60 + x62 + x65 + x68 + x72 + x74 + x75 + x76 + x93 + x115 + x130
      + x134 + x151 + x158 + x159 + x162 + x172  = 1
 c41: x41 + x60 + x61 + x64 + x73 + x75 + x79 + x81 + x89 + x109 + x119 + x128
      + x152 + x159 + x172 + x175 + x177 + x178  = 1
 c42: x42 + x52 + x53 + x54 + x55 + x56 + x57 + x58 + x59 + x61 + x63 + x65
      + x72 + x73 + x83 + x88 + x93 + x105 + x110 + x114 + x116 + x131 + x139
      + x141 + x175  = 1
 c43: x43 + x51 + x52 + x53 + x55 + x56 + x57 + x58 + x59 + x61 + x62 + x65
      + x66 + x68 + x71 + x75 + x77 + x80 + x87 + x88 + x102 + x109 + x117
      + x125 + x138 + x158  = 1
 c44: x44 + x51 + x52 + x53 + x54 + x56 + x57 + x58 + x59 + x61 + x62 + x65
      + x67 + x69 + x72 + x77 + x78 + x91 + x103 + x144 + x174  = 1
 c45: x45 + x51 + x52 + x53 + x54 + x55 + x57 + x58 + x59 + x61 + x62 + x66
      + x67 + x69 + x71 + x80 + x81 + x83 + x85 + x86 + x104 + x110 + x116
      + x132 + x137 + x147 + x150  = 1
 c46: x46 + x51 + x52 + x53 + x54 + x55 + x56 + x58 + x59 + x62 + x63 + x67
      + x71 + x72 + x75 + x79 + x85 + x89 + x90 + x92 + x94 + x104 + x114
      + x117 + x119 + x125 + x126 + x128 + x132 + x134 + x142 + x163 + x169
      + x171  = 1
 c47: x47 + x51 + x52 + x53 + x54 + x55 + x56 + x57 + x59 + x62 + x63 + x64
      + x69 + x70 + x76 + x77 + x80 + x83 + x87 + x96 + x106 + x118 + x147
      + x148 + x149 + x154 + x155 + x157  = 1
 c48: x48 + x51 + x52 + x53 + x54 + x55 + x56 + x57 + x58 + x60 + x66 + x68
      + x69 + x72 + x73 + x77 + x81 + x90 + x92 + x100 + x105 + x107 + x115
      + x117 + x119 + x120 + x126 + x138 + x143 + x147 + x167  = 1
 c49: x49 + x51 + x52 + x54 + x55 + x56 + x57 + x58 + x59 + x61 + x63 + x66
      + x70 + x76 + x79 + x85 + x86 + x94 + x97 + x105 + x114 + x117 + x126
      + x130 + x143 + x168 + x173  = 1
 c50: x50 + x51 + x53 + x54 + x55 + x56 + x57 + x58 + x59 + x60 + x65 + x67
      + x80 + x82 + x89 + x105 + x110 + x113 + x122 + x124 + x127 + x151 + x155
      + x163  = 1
Bounds
      x166 = 0
End
